33D32945 STP File, STP Format Version 1.0

SECTION Comments
Name "edge_n13_d3_s15"
Problem "Euclidean Steiner Tree Problem"
Remark "Generated with STPGenerator. 3 dimensions."
END

SECTION Graph
Nodes 13
END

SECTION Coordinates
DDD 0 0.3549731771 0.3549731771 0.3549731771
DDD 1 0.6731490375 0.6731490375 0.6731490375
DDD 2 0.5153574038 0.5153574038 0.5153574038
DDD 3 0.2768868838 0.2768868838 0.2768868838
DDD 4 0.9831143995 0.9831143995 0.9831143995
DDD 5 0.7832298362 0.7832298362 0.7832298362
DDD 6 0.3857721921 0.3857721921 0.3857721921
DDD 7 0.3929051535 0.3929051535 0.3929051535
DDD 8 0.0476035024 0.0476035024 0.0476035024
DDD 9 0.2348172144 0.2348172144 0.2348172144
DDD 10 0.1034733854 0.1034733854 0.1034733854
DDD 11 0.3869860398 0.3869860398 0.3869860398
DDD 12 0.9775588964 0.9775588964 0.9775588964
END
